output_file = "9-1-B-100-1.80-82.csv";

n_days = 100;
n_shelves = 9;
n_crops = 1;

crop_shelf_compatible = [
    [1, 1, 1, 1, 1, 1, 1, 1, 1]
];

crop_growth_days = [15];

n_configurations = 2;

crop_growth_day_config = [
    [1, 1, 1, 2, 2, 2, 2, 2, 2, 2, 2, 2, 2, 2, 2]
];

capacity = [
    [12, 12],
[12, 12],
[12, 12],
[12, 12],
[12, 12],
[12, 12],
[12, 12],
[12, 12],
[12, 12]
];

demand = [
    [0, 0, 0, 0, 0, 0, 0, 0, 0, 0, 0, 0, 0, 0, 0, 0, 14, 0, 10, 12, 0, 3, 0, 0, 18, 0, 0, 1, 0, 0, 0, 16, 14, 7, 5, 3, 0, 0, 0, 16, 10, 5, 0, 0, 0, 0, 0, 0, 0, 0, 0, 0, 0, 0, 0, 3, 0, 0, 0, 23, 19, 0, 5, 0, 3, 0, 16, 12, 0, 5, 0, 0, 0, 0, 0, 0, 0, 0, 5, 12, 18, 0, 0, 1, 0, 0, 10, 0, 25, 0, 0, 0, 12, 9, 0, 0, 0, 0, 0, 0]
];
